examples/inputs/input24.dzn
n = 62;
l = 450;
s = 400;
r = 400;
f = 100;
forbidden = [| 26, 5
	| 43, 1
	| 43, 3
	| 33, 18
	| 3, 9
	| 27, 22
	| 58, 48
	| 37, 16
	| 57, 32
	| 38, 51
	| 3, 50
	| 14, 46
	| 41, 33
	| 48, 16
	| 45, 6
	| 31, 25
	| 1, 59
	| 11, 13
	| 40, 16
	| 30, 56
	| 19, 58
	| 24, 31
	| 3, 7
	| 5, 35
	| 11, 34
	| 41, 9
	| 28, 26
	| 50, 31
	| 28, 47
	| 38, 28
	| 1, 18
	| 49, 26
	| 10, 15
	| 1, 37
	| 58, 51
	| 12, 35
	| 23, 48
	| 56, 6
	| 32, 22
	| 55, 13
	| 36, 58
	| 10, 40
	| 22, 41
	| 19, 19
	| 43, 32
	| 18, 35
	| 8, 50
	| 28, 16
	| 27, 43
	| 31, 15
	| 6, 46
	| 40, 31
	| 59, 40
	| 40, 15
	| 4, 61
	| 32, 47
	| 61, 5
	| 14, 15
	| 23, 56
	| 22, 38
	| 26, 14
	| 17, 33
	| 20, 5
	| 52, 31
	| 26, 57
	| 42, 36
	| 37, 5
	| 16, 62
	| 57, 21
	| 1, 56
	| 46, 15
	| 22, 20
	| 21, 32
	| 41, 1
	| 22, 30
	| 40, 61
	| 56, 41
	| 56, 20
	| 46, 25
	| 30, 45
	| 40, 10
	| 55, 44
	| 58, 29
	| 31, 5
	| 24, 3
	| 13, 55
	| 37, 1
	| 39, 36
	| 29, 24
	| 20, 48
	| 46, 13
	| 12, 47
	| 39, 24
	| 48, 20
	| 25, 26
	| 20, 40
	| 43, 11
	| 43, 6
	| 16, 41
	| 41, 39
	|];