examples/inputs/input24.lp
#const n = 62.
#const l = 450.
#const s = 400.
#const r = 400.
#const f = 100.
val(26, 5, xxx).
val(43, 1, xxx).
val(43, 3, xxx).
val(33, 18, xxx).
val(3, 9, xxx).
val(27, 22, xxx).
val(58, 48, xxx).
val(37, 16, xxx).
val(57, 32, xxx).
val(38, 51, xxx).
val(3, 50, xxx).
val(14, 46, xxx).
val(41, 33, xxx).
val(48, 16, xxx).
val(45, 6, xxx).
val(31, 25, xxx).
val(1, 59, xxx).
val(11, 13, xxx).
val(40, 16, xxx).
val(30, 56, xxx).
val(19, 58, xxx).
val(24, 31, xxx).
val(3, 7, xxx).
val(5, 35, xxx).
val(11, 34, xxx).
val(41, 9, xxx).
val(28, 26, xxx).
val(50, 31, xxx).
val(28, 47, xxx).
val(38, 28, xxx).
val(1, 18, xxx).
val(49, 26, xxx).
val(10, 15, xxx).
val(1, 37, xxx).
val(58, 51, xxx).
val(12, 35, xxx).
val(23, 48, xxx).
val(56, 6, xxx).
val(32, 22, xxx).
val(55, 13, xxx).
val(36, 58, xxx).
val(10, 40, xxx).
val(22, 41, xxx).
val(19, 19, xxx).
val(43, 32, xxx).
val(18, 35, xxx).
val(8, 50, xxx).
val(28, 16, xxx).
val(27, 43, xxx).
val(31, 15, xxx).
val(6, 46, xxx).
val(40, 31, xxx).
val(59, 40, xxx).
val(40, 15, xxx).
val(4, 61, xxx).
val(32, 47, xxx).
val(61, 5, xxx).
val(14, 15, xxx).
val(23, 56, xxx).
val(22, 38, xxx).
val(26, 14, xxx).
val(17, 33, xxx).
val(20, 5, xxx).
val(52, 31, xxx).
val(26, 57, xxx).
val(42, 36, xxx).
val(37, 5, xxx).
val(16, 62, xxx).
val(57, 21, xxx).
val(1, 56, xxx).
val(46, 15, xxx).
val(22, 20, xxx).
val(21, 32, xxx).
val(41, 1, xxx).
val(22, 30, xxx).
val(40, 61, xxx).
val(56, 41, xxx).
val(56, 20, xxx).
val(46, 25, xxx).
val(30, 45, xxx).
val(40, 10, xxx).
val(55, 44, xxx).
val(58, 29, xxx).
val(31, 5, xxx).
val(24, 3, xxx).
val(13, 55, xxx).
val(37, 1, xxx).
val(39, 36, xxx).
val(29, 24, xxx).
val(20, 48, xxx).
val(46, 13, xxx).
val(12, 47, xxx).
val(39, 24, xxx).
val(48, 20, xxx).
val(25, 26, xxx).
val(20, 40, xxx).
val(43, 11, xxx).
val(43, 6, xxx).
val(16, 41, xxx).
val(41, 39, xxx).